32      4       
15      12      16      20      
0       0       0       0       0       3       2       12      13      
6       0       1       16      0       1       3       
1       15      0       10      0       2       4       31      
5       0       11      0       13      3       5       16      30      
7       0       1       11      0       2       6       7       
8       7       0       0       20      1       8       
5       12      0       0       11      3       11      23      29      
7       15      0       0       11      1       9       
9       0       0       1       20      2       10      23      
1       2       0       0       1       1       14      
2       0       5       6       0       1       14      
7       0       1       5       0       1       14      
9       7       0       12      0       1       14      
10      0       4       16      0       1       15      
9       1       9       0       0       2       17      28      
9       6       0       0       14      2       17      28      
2       5       0       4       0       2       18      27      
2       0       0       1       14      1       19      
1       0       0       7       1       1       20      
10      0       0       1       1       1       21      
1       0       0       10      9       2       22      26      
5       0       6       0       15      1       24      
4       5       12      0       0       1       24      
7       12      0       0       12      1       25      
9       0       6       0       7       1       32      
6       11      4       0       0       1       32      
2       9       12      0       0       1       32      
3       1       0       0       1       1       32      
8       0       8       5       0       1       32      
5       0       1       15      0       1       32      
4       5       9       0       0       1       32      
0       0       0       0       0       0       
